c A SAT instance generated from a 3-CNF formula that had 24 clauses and 12 variables
p cnf 12 24
12 -10 1 0
1 -10 3 0
5 -12 9 0
-4 -6 2 0
5 -6 -1 0
12 -2 -7 0
8 3 1 0
3 9 7 0
-12 -8 6 0
-6 7 -4 0
-7 10 11 0
-7 -3 11 0
-8 11 -6 0
6 -1 11 0
-9 -3 -1 0
-12 -6 -5 0
-11 -4 -12 0
7 1 5 0
-11 12 5 0
-12 4 7 0
9 12 -1 0
-2 -9 -11 0
9 -2 -6 0
11 12 5 0
